letting n_nurses=25
letting n_days=7
letting n_shift_types=4
letting max_covers=13
letting t_covers=87
letting covers=[0,8,13,0,9,0,10,0,9,11,0,0,0,0,0,0,0,0,0,0,2,1,6,0,12,5,1,0]
letting prefes=[1,2,3,4,1,4,1,3,1,2,3,4,1,4,1,3,1,2,3,4,1,4,1,3,1,4,1,3,1,2,3,4,2,4,4,3,1,2,3,4,2,4,4,3,1,2,3,4,2,4,4,3,2,4,4,3,1,2,3,1,2,1,4,3,1,2,3,1,2,1,4,3,1,2,3,1,2,1,4,3,2,1,4,3,1,1,3,4,1,1,4,3,1,1,3,4,1,1,4,3,1,1,3,4,1,1,4,3,1,1,4,3,1,2,3,4,2,1,4,3,1,2,3,4,2,1,4,3,1,2,3,4,2,1,4,3,2,1,4,3,1,2,3,1,2,1,4,3,1,2,3,1,2,1,4,3,1,2,3,1,2,1,4,3,2,1,4,3,1,1,3,4,2,1,4,1,1,1,3,4,2,1,4,1,1,1,3,4,2,1,4,1,2,1,4,1,1,2,3,4,2,1,4,3,1,2,3,4,2,1,4,3,1,2,3,4,2,1,4,3,2,1,4,3,1,2,3,4,2,4,4,3,1,2,3,4,2,4,4,3,1,2,3,4,2,4,4,3,2,4,4,3,2,2,3,4,2,1,4,3,2,2,3,4,2,1,4,3,2,2,3,4,2,1,4,3,2,1,4,3,1,2,1,1,2,4,4,3,1,2,1,1,2,4,4,3,1,2,1,1,2,4,4,3,2,4,4,3,2,2,3,4,2,1,4,3,2,2,3,4,2,1,4,3,2,2,3,4,2,1,4,3,2,1,4,3,1,2,3,4,2,1,4,1,1,2,3,4,2,1,4,1,1,2,3,4,2,1,4,1,2,1,4,1,1,2,3,4,2,1,4,3,1,2,3,4,2,1,4,3,1,2,3,4,2,1,4,3,2,1,4,3,3,2,3,4,2,1,4,3,3,2,3,4,2,1,4,3,3,2,3,4,2,1,4,3,2,1,4,3,2,1,1,4,1,1,4,3,2,1,1,4,1,1,4,3,2,1,1,4,1,1,4,3,1,1,4,3,1,2,3,4,1,1,1,1,1,2,3,4,1,1,1,1,1,2,3,4,1,1,1,1,1,1,1,1,1,2,3,4,2,1,4,1,1,2,3,4,2,1,4,1,1,2,3,4,2,1,4,1,2,1,4,1,1,1,1,4,2,1,4,3,1,1,1,4,2,1,4,3,1,1,1,4,2,1,4,3,2,1,4,3,1,2,1,1,1,1,4,3,1,2,1,1,1,1,4,3,1,2,1,1,1,1,4,3,1,1,4,3,1,1,3,4,2,1,1,1,1,1,3,4,2,1,1,1,1,1,3,4,2,1,1,1,2,1,1,1,1,2,3,1,2,1,1,3,1,2,3,1,2,1,1,3,1,2,3,1,2,1,1,3,2,1,1,3,1,2,1,4,2,4,4,3,1,2,1,4,2,4,4,3,1,2,1,4,2,4,4,3,2,4,4,3,4,2,3,4,2,1,1,3,4,2,3,4,2,1,1,3,4,2,3,4,2,1,1,3,2,1,1,3,1,2,3,4,2,1,4,3,1,2,3,4,2,1,4,3,1,2,3,4,2,1,4,3,2,1,4,3]
letting ub =  317
